c FILE /home/rafael/Documents/HappySet/MIHS/inputs/happygen/output/graph_random_k2_p0.5_v100_20241127_083601.txt
c SOURCE This is a random graph formed for the happy graph colouring problem.
c DESCRIPTION It was generated using the problem generator of Rhyd Lewis
c
c GRAPH STATS
c Seed                             = 792279142
c Number of Nodes                  = 100
c Edge probability defined by user = 0.5
c Number of colours k              = 2
c Number of pre-assignments        = 50
c Actual density                   = 0.49798
c 
c The degrees of nodes 1 to 100, respectively, are as follows 
c [62, 61, 60, 60, 59, 58, 58, 57, 57, 56, 56, 56, 56, 56, 55, 55, 55, 54, 54, 54, 54, 53, 53, 53, 53, 53, 
c  53, 53, 53, 52, 52, 52, 52, 52, 51, 51, 51, 51, 51, 51, 51, 51, 51, 50, 50, 50, 50, 49, 49, 49, 49, 
c  49, 49, 49, 49, 49, 49, 48, 48, 48, 48, 48, 48, 48, 47, 47, 47, 47, 47, 47, 47, 46, 46, 46, 46, 46, 
c  45, 44, 44, 44, 44, 44, 44, 44, 44, 44, 43, 43, 43, 43, 43, 43, 43, 42, 40, 38, 38, 37, 36, 36] 
c  
p edge 100 2465 2
e 1 3
e 1 4
e 1 7
e 1 8
e 1 9
e 1 10
e 1 11
e 1 13
e 1 14
e 1 16
e 1 17
e 1 18
e 1 19
e 1 20
e 1 22
e 1 23
e 1 24
e 1 26
e 1 27
e 1 28
e 1 30
e 1 31
e 1 32
e 1 34
e 1 35
e 1 36
e 1 37
e 1 39
e 1 42
e 1 43
e 1 45
e 1 46
e 1 49
e 1 51
e 1 52
e 1 54
e 1 57
e 1 60
e 1 62
e 1 63
e 1 66
e 1 68
e 1 69
e 1 70
e 1 71
e 1 74
e 1 75
e 1 76
e 1 77
e 1 79
e 1 81
e 1 83
e 1 84
e 1 86
e 1 87
e 1 88
e 1 91
e 1 92
e 1 93
e 1 94
e 1 97
e 1 100
e 2 3
e 2 4
e 2 6
e 2 7
e 2 9
e 2 11
e 2 12
e 2 14
e 2 17
e 2 18
e 2 19
e 2 21
e 2 22
e 2 23
e 2 24
e 2 27
e 2 29
e 2 30
e 2 32
e 2 34
e 2 35
e 2 36
e 2 37
e 2 40
e 2 41
e 2 44
e 2 45
e 2 47
e 2 48
e 2 51
e 2 53
e 2 54
e 2 57
e 2 58
e 2 59
e 2 60
e 2 64
e 2 65
e 2 67
e 2 70
e 2 71
e 2 72
e 2 73
e 2 77
e 2 78
e 2 79
e 2 80
e 2 81
e 2 83
e 2 84
e 2 85
e 2 86
e 2 88
e 2 90
e 2 93
e 2 95
e 2 96
e 2 97
e 2 98
e 2 99
e 2 100
e 3 4
e 3 5
e 3 8
e 3 9
e 3 10
e 3 11
e 3 12
e 3 13
e 3 14
e 3 18
e 3 19
e 3 20
e 3 22
e 3 23
e 3 26
e 3 27
e 3 29
e 3 32
e 3 33
e 3 34
e 3 35
e 3 36
e 3 38
e 3 39
e 3 41
e 3 42
e 3 43
e 3 45
e 3 46
e 3 49
e 3 51
e 3 52
e 3 53
e 3 56
e 3 62
e 3 63
e 3 64
e 3 65
e 3 68
e 3 69
e 3 70
e 3 71
e 3 72
e 3 73
e 3 74
e 3 75
e 3 76
e 3 77
e 3 78
e 3 80
e 3 84
e 3 85
e 3 89
e 3 91
e 3 95
e 3 97
e 3 99
e 3 100
e 4 5
e 4 6
e 4 8
e 4 10
e 4 11
e 4 12
e 4 13
e 4 14
e 4 17
e 4 19
e 4 20
e 4 21
e 4 24
e 4 26
e 4 27
e 4 28
e 4 29
e 4 30
e 4 34
e 4 36
e 4 37
e 4 39
e 4 40
e 4 42
e 4 44
e 4 45
e 4 47
e 4 48
e 4 51
e 4 52
e 4 53
e 4 54
e 4 55
e 4 57
e 4 61
e 4 64
e 4 65
e 4 66
e 4 67
e 4 69
e 4 71
e 4 72
e 4 74
e 4 75
e 4 77
e 4 78
e 4 80
e 4 81
e 4 82
e 4 83
e 4 86
e 4 87
e 4 90
e 4 91
e 4 92
e 4 98
e 4 99
e 5 6
e 5 7
e 5 8
e 5 10
e 5 11
e 5 13
e 5 14
e 5 15
e 5 16
e 5 18
e 5 19
e 5 21
e 5 22
e 5 23
e 5 25
e 5 26
e 5 28
e 5 31
e 5 32
e 5 34
e 5 35
e 5 37
e 5 41
e 5 44
e 5 45
e 5 46
e 5 47
e 5 48
e 5 50
e 5 51
e 5 52
e 5 54
e 5 55
e 5 57
e 5 60
e 5 62
e 5 63
e 5 64
e 5 65
e 5 66
e 5 69
e 5 70
e 5 74
e 5 75
e 5 80
e 5 81
e 5 82
e 5 83
e 5 84
e 5 85
e 5 86
e 5 88
e 5 89
e 5 91
e 5 92
e 5 98
e 5 100
e 6 7
e 6 8
e 6 12
e 6 13
e 6 14
e 6 16
e 6 17
e 6 20
e 6 22
e 6 25
e 6 26
e 6 27
e 6 30
e 6 31
e 6 32
e 6 34
e 6 36
e 6 37
e 6 38
e 6 39
e 6 40
e 6 41
e 6 42
e 6 44
e 6 45
e 6 46
e 6 47
e 6 48
e 6 50
e 6 53
e 6 54
e 6 55
e 6 57
e 6 58
e 6 61
e 6 63
e 6 65
e 6 66
e 6 67
e 6 68
e 6 69
e 6 71
e 6 72
e 6 73
e 6 74
e 6 77
e 6 78
e 6 79
e 6 82
e 6 87
e 6 90
e 6 93
e 6 94
e 6 96
e 6 99
e 7 8
e 7 9
e 7 10
e 7 11
e 7 12
e 7 13
e 7 14
e 7 15
e 7 16
e 7 18
e 7 20
e 7 21
e 7 22
e 7 24
e 7 25
e 7 26
e 7 29
e 7 30
e 7 35
e 7 36
e 7 37
e 7 41
e 7 43
e 7 45
e 7 46
e 7 48
e 7 50
e 7 51
e 7 52
e 7 53
e 7 54
e 7 57
e 7 58
e 7 61
e 7 67
e 7 70
e 7 74
e 7 75
e 7 76
e 7 77
e 7 79
e 7 80
e 7 81
e 7 82
e 7 83
e 7 84
e 7 85
e 7 89
e 7 90
e 7 91
e 7 95
e 7 98
e 7 99
e 7 100
e 8 9
e 8 11
e 8 13
e 8 16
e 8 17
e 8 18
e 8 19
e 8 20
e 8 21
e 8 24
e 8 25
e 8 27
e 8 29
e 8 31
e 8 33
e 8 37
e 8 40
e 8 41
e 8 42
e 8 44
e 8 46
e 8 47
e 8 49
e 8 50
e 8 51
e 8 52
e 8 53
e 8 54
e 8 60
e 8 64
e 8 65
e 8 66
e 8 67
e 8 68
e 8 71
e 8 72
e 8 74
e 8 76
e 8 80
e 8 81
e 8 82
e 8 83
e 8 84
e 8 86
e 8 87
e 8 91
e 8 92
e 8 94
e 8 95
e 8 96
e 8 99
e 9 10
e 9 13
e 9 14
e 9 15
e 9 16
e 9 17
e 9 18
e 9 20
e 9 21
e 9 22
e 9 23
e 9 25
e 9 26
e 9 27
e 9 28
e 9 29
e 9 30
e 9 31
e 9 32
e 9 33
e 9 34
e 9 35
e 9 38
e 9 41
e 9 42
e 9 43
e 9 44
e 9 46
e 9 47
e 9 48
e 9 49
e 9 51
e 9 52
e 9 53
e 9 54
e 9 58
e 9 61
e 9 63
e 9 64
e 9 67
e 9 68
e 9 70
e 9 82
e 9 83
e 9 84
e 9 86
e 9 87
e 9 89
e 9 93
e 9 94
e 9 96
e 9 100
e 10 11
e 10 12
e 10 13
e 10 14
e 10 15
e 10 16
e 10 17
e 10 19
e 10 20
e 10 21
e 10 22
e 10 23
e 10 24
e 10 26
e 10 27
e 10 28
e 10 29
e 10 30
e 10 31
e 10 34
e 10 35
e 10 38
e 10 46
e 10 48
e 10 49
e 10 54
e 10 56
e 10 59
e 10 60
e 10 62
e 10 63
e 10 64
e 10 65
e 10 66
e 10 70
e 10 72
e 10 73
e 10 76
e 10 77
e 10 79
e 10 80
e 10 82
e 10 84
e 10 85
e 10 90
e 10 92
e 10 94
e 10 95
e 10 96
e 10 99
e 11 12
e 11 14
e 11 15
e 11 18
e 11 21
e 11 22
e 11 24
e 11 27
e 11 28
e 11 29
e 11 30
e 11 31
e 11 32
e 11 33
e 11 34
e 11 37
e 11 38
e 11 40
e 11 42
e 11 44
e 11 46
e 11 48
e 11 51
e 11 52
e 11 56
e 11 57
e 11 58
e 11 60
e 11 62
e 11 63
e 11 65
e 11 69
e 11 70
e 11 73
e 11 74
e 11 77
e 11 79
e 11 80
e 11 81
e 11 82
e 11 83
e 11 88
e 11 92
e 11 95
e 11 96
e 11 97
e 11 99
e 11 100
e 12 13
e 12 15
e 12 16
e 12 18
e 12 19
e 12 21
e 12 22
e 12 23
e 12 25
e 12 30
e 12 32
e 12 33
e 12 35
e 12 36
e 12 37
e 12 38
e 12 39
e 12 40
e 12 43
e 12 44
e 12 45
e 12 46
e 12 48
e 12 50
e 12 54
e 12 55
e 12 57
e 12 58
e 12 59
e 12 60
e 12 61
e 12 62
e 12 63
e 12 64
e 12 67
e 12 70
e 12 71
e 12 72
e 12 75
e 12 77
e 12 80
e 12 81
e 12 82
e 12 87
e 12 89
e 12 95
e 12 96
e 12 97
e 12 98
e 13 14
e 13 15
e 13 16
e 13 17
e 13 18
e 13 19
e 13 21
e 13 25
e 13 27
e 13 29
e 13 30
e 13 32
e 13 33
e 13 34
e 13 35
e 13 36
e 13 37
e 13 38
e 13 39
e 13 40
e 13 41
e 13 45
e 13 46
e 13 50
e 13 51
e 13 52
e 13 54
e 13 55
e 13 58
e 13 60
e 13 61
e 13 62
e 13 64
e 13 67
e 13 70
e 13 73
e 13 75
e 13 76
e 13 77
e 13 81
e 13 82
e 13 86
e 13 93
e 13 94
e 13 99
e 13 100
e 14 15
e 14 16
e 14 17
e 14 18
e 14 20
e 14 21
e 14 23
e 14 26
e 14 27
e 14 28
e 14 31
e 14 34
e 14 36
e 14 37
e 14 38
e 14 39
e 14 40
e 14 42
e 14 46
e 14 48
e 14 50
e 14 53
e 14 55
e 14 56
e 14 57
e 14 58
e 14 59
e 14 61
e 14 62
e 14 63
e 14 64
e 14 68
e 14 69
e 14 70
e 14 72
e 14 73
e 14 79
e 14 81
e 14 83
e 14 90
e 14 92
e 14 95
e 14 97
e 14 98
e 14 100
e 15 16
e 15 17
e 15 18
e 15 20
e 15 21
e 15 22
e 15 24
e 15 29
e 15 31
e 15 33
e 15 34
e 15 39
e 15 42
e 15 45
e 15 46
e 15 47
e 15 50
e 15 51
e 15 52
e 15 54
e 15 56
e 15 57
e 15 58
e 15 59
e 15 60
e 15 63
e 15 64
e 15 65
e 15 66
e 15 67
e 15 69
e 15 74
e 15 75
e 15 76
e 15 78
e 15 79
e 15 80
e 15 82
e 15 84
e 15 85
e 15 86
e 15 88
e 15 90
e 15 91
e 15 93
e 15 95
e 15 100
e 16 18
e 16 19
e 16 20
e 16 22
e 16 26
e 16 31
e 16 33
e 16 37
e 16 38
e 16 39
e 16 41
e 16 45
e 16 46
e 16 47
e 16 48
e 16 49
e 16 52
e 16 53
e 16 54
e 16 55
e 16 56
e 16 59
e 16 61
e 16 62
e 16 66
e 16 67
e 16 68
e 16 70
e 16 72
e 16 74
e 16 75
e 16 76
e 16 81
e 16 84
e 16 85
e 16 86
e 16 87
e 16 88
e 16 89
e 16 90
e 16 91
e 16 93
e 16 97
e 16 98
e 17 18
e 17 19
e 17 20
e 17 21
e 17 22
e 17 23
e 17 24
e 17 25
e 17 28
e 17 29
e 17 31
e 17 32
e 17 33
e 17 35
e 17 38
e 17 39
e 17 41
e 17 42
e 17 43
e 17 44
e 17 47
e 17 50
e 17 52
e 17 55
e 17 58
e 17 59
e 17 61
e 17 63
e 17 65
e 17 67
e 17 68
e 17 69
e 17 72
e 17 73
e 17 75
e 17 77
e 17 78
e 17 79
e 17 80
e 17 81
e 17 86
e 17 92
e 17 94
e 17 95
e 17 96
e 18 23
e 18 24
e 18 26
e 18 29
e 18 31
e 18 34
e 18 35
e 18 38
e 18 39
e 18 40
e 18 42
e 18 43
e 18 45
e 18 46
e 18 47
e 18 49
e 18 50
e 18 51
e 18 52
e 18 57
e 18 58
e 18 62
e 18 64
e 18 67
e 18 69
e 18 70
e 18 71
e 18 73
e 18 74
e 18 76
e 18 77
e 18 79
e 18 80
e 18 82
e 18 85
e 18 86
e 18 87
e 18 88
e 18 97
e 18 98
e 19 21
e 19 23
e 19 24
e 19 25
e 19 26
e 19 27
e 19 29
e 19 30
e 19 32
e 19 34
e 19 35
e 19 36
e 19 37
e 19 38
e 19 41
e 19 44
e 19 49
e 19 50
e 19 53
e 19 54
e 19 55
e 19 56
e 19 59
e 19 60
e 19 61
e 19 64
e 19 65
e 19 66
e 19 67
e 19 68
e 19 69
e 19 70
e 19 71
e 19 74
e 19 76
e 19 83
e 19 85
e 19 88
e 19 89
e 19 91
e 19 93
e 19 95
e 19 98
e 20 24
e 20 25
e 20 26
e 20 27
e 20 30
e 20 31
e 20 34
e 20 35
e 20 37
e 20 41
e 20 42
e 20 44
e 20 46
e 20 48
e 20 50
e 20 53
e 20 54
e 20 55
e 20 56
e 20 59
e 20 61
e 20 62
e 20 63
e 20 65
e 20 67
e 20 68
e 20 70
e 20 72
e 20 75
e 20 77
e 20 78
e 20 80
e 20 84
e 20 85
e 20 88
e 20 89
e 20 90
e 20 92
e 20 93
e 20 95
e 20 96
e 20 97
e 21 26
e 21 27
e 21 29
e 21 32
e 21 36
e 21 38
e 21 42
e 21 43
e 21 44
e 21 45
e 21 46
e 21 51
e 21 52
e 21 53
e 21 54
e 21 55
e 21 56
e 21 58
e 21 60
e 21 61
e 21 65
e 21 67
e 21 68
e 21 69
e 21 71
e 21 72
e 21 74
e 21 75
e 21 77
e 21 80
e 21 85
e 21 86
e 21 88
e 21 89
e 21 90
e 21 92
e 21 93
e 21 94
e 21 95
e 21 99
e 22 23
e 22 24
e 22 25
e 22 26
e 22 27
e 22 28
e 22 31
e 22 32
e 22 35
e 22 37
e 22 39
e 22 40
e 22 42
e 22 45
e 22 46
e 22 47
e 22 49
e 22 51
e 22 52
e 22 53
e 22 54
e 22 56
e 22 57
e 22 58
e 22 59
e 22 62
e 22 65
e 22 70
e 22 72
e 22 78
e 22 80
e 22 81
e 22 83
e 22 84
e 22 86
e 22 87
e 22 89
e 22 90
e 22 91
e 22 98
e 23 24
e 23 25
e 23 26
e 23 29
e 23 30
e 23 31
e 23 32
e 23 34
e 23 36
e 23 37
e 23 38
e 23 41
e 23 42
e 23 45
e 23 46
e 23 47
e 23 48
e 23 51
e 23 55
e 23 58
e 23 62
e 23 63
e 23 64
e 23 65
e 23 66
e 23 70
e 23 73
e 23 75
e 23 78
e 23 79
e 23 80
e 23 81
e 23 83
e 23 84
e 23 85
e 23 87
e 23 88
e 23 93
e 23 97
e 23 98
e 23 99
e 24 26
e 24 27
e 24 29
e 24 31
e 24 32
e 24 33
e 24 37
e 24 39
e 24 41
e 24 43
e 24 45
e 24 46
e 24 47
e 24 49
e 24 50
e 24 53
e 24 54
e 24 57
e 24 58
e 24 59
e 24 61
e 24 62
e 24 63
e 24 64
e 24 65
e 24 67
e 24 68
e 24 69
e 24 71
e 24 72
e 24 77
e 24 78
e 24 79
e 24 80
e 24 82
e 24 90
e 24 91
e 24 92
e 24 100
e 25 28
e 25 29
e 25 31
e 25 32
e 25 33
e 25 34
e 25 36
e 25 39
e 25 40
e 25 41
e 25 42
e 25 43
e 25 45
e 25 47
e 25 48
e 25 49
e 25 50
e 25 54
e 25 56
e 25 57
e 25 60
e 25 61
e 25 62
e 25 64
e 25 65
e 25 66
e 25 68
e 25 69
e 25 71
e 25 72
e 25 74
e 25 76
e 25 78
e 25 79
e 25 80
e 25 81
e 25 86
e 25 88
e 25 91
e 25 93
e 25 99
e 26 28
e 26 29
e 26 30
e 26 31
e 26 32
e 26 33
e 26 35
e 26 36
e 26 39
e 26 40
e 26 41
e 26 42
e 26 44
e 26 45
e 26 46
e 26 48
e 26 51
e 26 54
e 26 55
e 26 56
e 26 57
e 26 58
e 26 60
e 26 61
e 26 70
e 26 73
e 26 79
e 26 81
e 26 83
e 26 86
e 26 87
e 26 88
e 26 89
e 26 91
e 26 92
e 26 93
e 27 29
e 27 31
e 27 33
e 27 34
e 27 36
e 27 37
e 27 38
e 27 39
e 27 40
e 27 41
e 27 43
e 27 45
e 27 51
e 27 53
e 27 54
e 27 55
e 27 57
e 27 59
e 27 62
e 27 63
e 27 64
e 27 66
e 27 68
e 27 70
e 27 71
e 27 73
e 27 74
e 27 80
e 27 82
e 27 83
e 27 87
e 27 88
e 27 89
e 27 90
e 27 94
e 27 95
e 27 99
e 28 29
e 28 30
e 28 31
e 28 33
e 28 34
e 28 35
e 28 37
e 28 38
e 28 39
e 28 40
e 28 42
e 28 43
e 28 45
e 28 47
e 28 48
e 28 50
e 28 52
e 28 54
e 28 56
e 28 58
e 28 60
e 28 61
e 28 63
e 28 66
e 28 67
e 28 68
e 28 70
e 28 71
e 28 73
e 28 74
e 28 75
e 28 76
e 28 81
e 28 82
e 28 83
e 28 84
e 28 85
e 28 86
e 28 89
e 28 92
e 28 98
e 28 99
e 29 30
e 29 32
e 29 33
e 29 35
e 29 38
e 29 39
e 29 40
e 29 41
e 29 42
e 29 43
e 29 47
e 29 49
e 29 51
e 29 54
e 29 56
e 29 57
e 29 59
e 29 62
e 29 64
e 29 66
e 29 69
e 29 73
e 29 75
e 29 76
e 29 77
e 29 79
e 29 85
e 29 86
e 29 88
e 29 89
e 29 95
e 29 99
e 29 100
e 30 32
e 30 33
e 30 39
e 30 41
e 30 43
e 30 44
e 30 45
e 30 46
e 30 47
e 30 48
e 30 49
e 30 50
e 30 51
e 30 53
e 30 55
e 30 56
e 30 57
e 30 59
e 30 61
e 30 62
e 30 63
e 30 70
e 30 71
e 30 72
e 30 74
e 30 75
e 30 76
e 30 78
e 30 79
e 30 80
e 30 86
e 30 87
e 30 89
e 30 95
e 30 97
e 30 98
e 31 36
e 31 37
e 31 38
e 31 39
e 31 40
e 31 43
e 31 44
e 31 50
e 31 51
e 31 52
e 31 54
e 31 56
e 31 57
e 31 58
e 31 60
e 31 66
e 31 69
e 31 70
e 31 71
e 31 73
e 31 74
e 31 76
e 31 77
e 31 79
e 31 82
e 31 83
e 31 84
e 31 87
e 31 92
e 31 94
e 31 95
e 31 98
e 32 34
e 32 37
e 32 38
e 32 40
e 32 41
e 32 42
e 32 44
e 32 45
e 32 46
e 32 50
e 32 53
e 32 54
e 32 55
e 32 59
e 32 60
e 32 62
e 32 65
e 32 67
e 32 69
e 32 72
e 32 73
e 32 74
e 32 78
e 32 81
e 32 84
e 32 87
e 32 88
e 32 90
e 32 93
e 32 94
e 32 95
e 32 96
e 32 97
e 33 34
e 33 35
e 33 36
e 33 39
e 33 40
e 33 42
e 33 45
e 33 48
e 33 49
e 33 50
e 33 51
e 33 53
e 33 54
e 33 55
e 33 56
e 33 59
e 33 60
e 33 61
e 33 64
e 33 68
e 33 69
e 33 70
e 33 73
e 33 76
e 33 81
e 33 82
e 33 83
e 33 85
e 33 86
e 33 87
e 33 91
e 33 92
e 33 93
e 33 94
e 33 96
e 33 99
e 34 35
e 34 37
e 34 38
e 34 39
e 34 42
e 34 43
e 34 45
e 34 50
e 34 51
e 34 53
e 34 55
e 34 64
e 34 66
e 34 67
e 34 68
e 34 69
e 34 72
e 34 73
e 34 75
e 34 76
e 34 77
e 34 78
e 34 79
e 34 80
e 34 85
e 34 86
e 34 87
e 34 90
e 34 92
e 34 94
e 34 96
e 35 37
e 35 38
e 35 39
e 35 40
e 35 41
e 35 43
e 35 44
e 35 47
e 35 48
e 35 49
e 35 51
e 35 52
e 35 56
e 35 61
e 35 62
e 35 63
e 35 69
e 35 73
e 35 77
e 35 78
e 35 79
e 35 82
e 35 83
e 35 84
e 35 86
e 35 88
e 35 89
e 35 90
e 35 91
e 35 94
e 35 96
e 35 100
e 36 37
e 36 39
e 36 40
e 36 42
e 36 44
e 36 48
e 36 50
e 36 51
e 36 54
e 36 56
e 36 59
e 36 61
e 36 64
e 36 65
e 36 66
e 36 69
e 36 70
e 36 71
e 36 72
e 36 73
e 36 74
e 36 78
e 36 79
e 36 81
e 36 82
e 36 83
e 36 84
e 36 85
e 36 87
e 36 88
e 36 89
e 36 91
e 36 96
e 36 97
e 37 40
e 37 46
e 37 47
e 37 49
e 37 50
e 37 52
e 37 53
e 37 54
e 37 58
e 37 59
e 37 62
e 37 63
e 37 71
e 37 72
e 37 76
e 37 80
e 37 83
e 37 84
e 37 85
e 37 88
e 37 90
e 37 91
e 37 93
e 37 94
e 37 95
e 37 98
e 37 100
e 38 40
e 38 41
e 38 42
e 38 43
e 38 46
e 38 48
e 38 50
e 38 53
e 38 55
e 38 56
e 38 58
e 38 61
e 38 64
e 38 66
e 38 68
e 38 70
e 38 71
e 38 73
e 38 74
e 38 75
e 38 76
e 38 79
e 38 80
e 38 84
e 38 86
e 38 87
e 38 90
e 38 94
e 38 97
e 38 99
e 39 40
e 39 43
e 39 51
e 39 53
e 39 54
e 39 55
e 39 56
e 39 57
e 39 60
e 39 63
e 39 66
e 39 68
e 39 70
e 39 72
e 39 73
e 39 74
e 39 76
e 39 77
e 39 87
e 39 92
e 39 93
e 39 94
e 39 95
e 39 96
e 39 97
e 39 99
e 39 100
e 40 41
e 40 42
e 40 43
e 40 45
e 40 47
e 40 48
e 40 49
e 40 50
e 40 51
e 40 52
e 40 54
e 40 56
e 40 57
e 40 58
e 40 66
e 40 69
e 40 73
e 40 74
e 40 75
e 40 76
e 40 77
e 40 78
e 40 82
e 40 83
e 40 85
e 40 86
e 40 87
e 40 92
e 41 43
e 41 44
e 41 45
e 41 47
e 41 48
e 41 49
e 41 50
e 41 52
e 41 53
e 41 57
e 41 59
e 41 62
e 41 63
e 41 64
e 41 66
e 41 67
e 41 68
e 41 70
e 41 71
e 41 76
e 41 77
e 41 80
e 41 83
e 41 84
e 41 87
e 41 91
e 41 95
e 41 96
e 42 45
e 42 46
e 42 47
e 42 49
e 42 50
e 42 56
e 42 57
e 42 58
e 42 60
e 42 65
e 42 66
e 42 71
e 42 72
e 42 74
e 42 76
e 42 83
e 42 84
e 42 86
e 42 89
e 42 90
e 42 91
e 42 93
e 42 96
e 42 97
e 42 98
e 42 100
e 43 44
e 43 48
e 43 49
e 43 50
e 43 51
e 43 53
e 43 55
e 43 59
e 43 61
e 43 62
e 43 65
e 43 66
e 43 67
e 43 70
e 43 71
e 43 75
e 43 77
e 43 78
e 43 81
e 43 83
e 43 84
e 43 88
e 43 90
e 43 92
e 43 93
e 43 94
e 43 95
e 43 96
e 43 97
e 43 99
e 44 45
e 44 47
e 44 48
e 44 49
e 44 50
e 44 51
e 44 52
e 44 53
e 44 55
e 44 57
e 44 61
e 44 62
e 44 63
e 44 64
e 44 66
e 44 70
e 44 71
e 44 72
e 44 76
e 44 78
e 44 79
e 44 82
e 44 83
e 44 84
e 44 87
e 44 88
e 44 92
e 44 94
e 44 95
e 44 96
e 45 47
e 45 48
e 45 50
e 45 57
e 45 59
e 45 60
e 45 65
e 45 68
e 45 69
e 45 72
e 45 73
e 45 74
e 45 79
e 45 81
e 45 84
e 45 87
e 45 89
e 45 91
e 45 93
e 45 96
e 45 97
e 45 98
e 46 54
e 46 56
e 46 57
e 46 58
e 46 61
e 46 63
e 46 64
e 46 65
e 46 68
e 46 76
e 46 78
e 46 79
e 46 81
e 46 82
e 46 86
e 46 88
e 46 89
e 46 90
e 46 91
e 46 93
e 46 94
e 46 95
e 46 96
e 46 100
e 47 48
e 47 50
e 47 55
e 47 58
e 47 59
e 47 60
e 47 61
e 47 62
e 47 63
e 47 64
e 47 67
e 47 68
e 47 69
e 47 73
e 47 74
e 47 75
e 47 76
e 47 77
e 47 78
e 47 82
e 47 85
e 47 91
e 47 92
e 47 94
e 47 97
e 47 98
e 48 49
e 48 50
e 48 55
e 48 59
e 48 61
e 48 62
e 48 63
e 48 67
e 48 73
e 48 75
e 48 85
e 48 86
e 48 88
e 48 90
e 48 91
e 48 92
e 48 93
e 48 94
e 48 96
e 48 98
e 48 99
e 48 100
e 49 51
e 49 54
e 49 55
e 49 56
e 49 59
e 49 60
e 49 61
e 49 63
e 49 66
e 49 67
e 49 68
e 49 69
e 49 72
e 49 73
e 49 75
e 49 76
e 49 79
e 49 81
e 49 85
e 49 86
e 49 87
e 49 89
e 49 90
e 49 91
e 49 95
e 49 96
e 49 100
e 50 52
e 50 59
e 50 64
e 50 65
e 50 66
e 50 70
e 50 72
e 50 77
e 50 80
e 50 85
e 50 87
e 50 88
e 50 89
e 50 90
e 50 93
e 50 95
e 50 98
e 50 99
e 51 53
e 51 54
e 51 57
e 51 59
e 51 61
e 51 64
e 51 66
e 51 68
e 51 69
e 51 70
e 51 71
e 51 82
e 51 83
e 51 88
e 51 91
e 51 92
e 51 94
e 51 98
e 51 99
e 51 100
e 52 54
e 52 56
e 52 58
e 52 60
e 52 63
e 52 64
e 52 67
e 52 68
e 52 71
e 52 73
e 52 74
e 52 75
e 52 78
e 52 79
e 52 80
e 52 81
e 52 83
e 52 85
e 52 87
e 52 92
e 52 93
e 52 96
e 52 97
e 52 98
e 52 99
e 52 100
e 53 54
e 53 55
e 53 57
e 53 58
e 53 59
e 53 60
e 53 61
e 53 62
e 53 64
e 53 66
e 53 67
e 53 72
e 53 73
e 53 74
e 53 75
e 53 77
e 53 86
e 53 87
e 53 90
e 53 91
e 53 94
e 53 95
e 53 97
e 54 57
e 54 63
e 54 72
e 54 74
e 54 75
e 54 76
e 54 80
e 54 81
e 54 83
e 54 84
e 54 87
e 54 94
e 54 96
e 54 98
e 55 57
e 55 58
e 55 59
e 55 62
e 55 64
e 55 66
e 55 67
e 55 69
e 55 70
e 55 71
e 55 75
e 55 78
e 55 80
e 55 82
e 55 83
e 55 85
e 55 89
e 55 90
e 55 92
e 55 93
e 55 96
e 55 98
e 55 100
e 56 57
e 56 58
e 56 59
e 56 61
e 56 65
e 56 66
e 56 67
e 56 70
e 56 71
e 56 73
e 56 74
e 56 75
e 56 76
e 56 78
e 56 80
e 56 82
e 56 83
e 56 88
e 56 90
e 56 91
e 56 94
e 56 96
e 56 99
e 57 58
e 57 60
e 57 61
e 57 62
e 57 66
e 57 69
e 57 70
e 57 73
e 57 74
e 57 75
e 57 77
e 57 78
e 57 82
e 57 85
e 57 91
e 57 96
e 57 97
e 57 100
e 58 60
e 58 61
e 58 62
e 58 64
e 58 65
e 58 66
e 58 71
e 58 72
e 58 75
e 58 76
e 58 77
e 58 78
e 58 79
e 58 80
e 58 81
e 58 86
e 58 92
e 58 94
e 58 100
e 59 60
e 59 61
e 59 62
e 59 64
e 59 65
e 59 68
e 59 69
e 59 70
e 59 72
e 59 75
e 59 76
e 59 79
e 59 82
e 59 83
e 59 85
e 59 87
e 59 95
e 59 96
e 59 99
e 60 62
e 60 63
e 60 66
e 60 67
e 60 68
e 60 69
e 60 71
e 60 75
e 60 76
e 60 77
e 60 78
e 60 79
e 60 80
e 60 82
e 60 83
e 60 92
e 60 93
e 60 95
e 60 96
e 60 97
e 60 98
e 61 69
e 61 71
e 61 75
e 61 76
e 61 78
e 61 80
e 61 84
e 61 85
e 61 86
e 61 88
e 61 89
e 61 90
e 61 91
e 61 92
e 61 97
e 62 67
e 62 68
e 62 69
e 62 71
e 62 72
e 62 80
e 62 83
e 62 84
e 62 85
e 62 87
e 62 89
e 62 90
e 62 93
e 62 95
e 62 99
e 62 100
e 63 65
e 63 68
e 63 69
e 63 70
e 63 71
e 63 72
e 63 73
e 63 77
e 63 78
e 63 80
e 63 81
e 63 82
e 63 84
e 63 87
e 63 90
e 63 94
e 63 96
e 63 97
e 63 100
e 64 65
e 64 67
e 64 69
e 64 74
e 64 77
e 64 81
e 64 82
e 64 83
e 64 84
e 64 88
e 64 89
e 64 91
e 64 93
e 64 96
e 64 97
e 65 67
e 65 68
e 65 71
e 65 72
e 65 74
e 65 79
e 65 80
e 65 81
e 65 82
e 65 84
e 65 85
e 65 86
e 65 88
e 65 94
e 65 95
e 65 98
e 65 99
e 65 100
e 66 67
e 66 68
e 66 70
e 66 71
e 66 74
e 66 78
e 66 79
e 66 82
e 66 88
e 66 90
e 66 92
e 66 93
e 66 94
e 66 99
e 67 68
e 67 69
e 67 71
e 67 72
e 67 73
e 67 77
e 67 79
e 67 85
e 67 87
e 67 88
e 67 89
e 67 93
e 67 94
e 67 98
e 68 70
e 68 71
e 68 72
e 68 73
e 68 75
e 68 76
e 68 78
e 68 81
e 68 83
e 68 86
e 68 87
e 68 94
e 68 99
e 68 100
e 69 72
e 69 73
e 69 74
e 69 78
e 69 79
e 69 85
e 69 91
e 69 92
e 69 94
e 69 95
e 69 96
e 69 97
e 70 74
e 70 77
e 70 80
e 70 83
e 70 86
e 70 90
e 70 91
e 70 92
e 70 93
e 71 72
e 71 77
e 71 78
e 71 80
e 71 81
e 71 82
e 71 87
e 71 88
e 71 89
e 71 91
e 71 100
e 72 75
e 72 81
e 72 83
e 72 84
e 72 89
e 72 90
e 72 92
e 72 98
e 72 99
e 73 75
e 73 77
e 73 79
e 73 80
e 73 82
e 73 84
e 73 85
e 73 87
e 73 88
e 73 89
e 73 98
e 74 76
e 74 79
e 74 81
e 74 82
e 74 86
e 74 88
e 74 89
e 74 91
e 74 92
e 74 96
e 75 76
e 75 79
e 75 82
e 75 84
e 75 87
e 75 89
e 75 90
e 75 93
e 75 95
e 75 97
e 76 77
e 76 78
e 76 79
e 76 80
e 76 81
e 76 84
e 76 89
e 76 90
e 76 91
e 76 94
e 77 82
e 77 83
e 77 86
e 77 91
e 77 92
e 77 93
e 77 95
e 77 96
e 77 98
e 78 84
e 78 85
e 78 86
e 78 88
e 78 90
e 78 91
e 78 93
e 78 95
e 78 97
e 78 98
e 79 81
e 79 82
e 79 84
e 79 86
e 79 90
e 79 92
e 79 99
e 80 83
e 80 84
e 80 91
e 80 93
e 80 98
e 81 83
e 81 84
e 81 85
e 81 87
e 81 89
e 81 93
e 81 97
e 81 100
e 82 84
e 82 86
e 82 89
e 82 94
e 82 99
e 83 85
e 83 87
e 83 91
e 83 92
e 84 85
e 84 87
e 84 93
e 84 94
e 85 86
e 85 89
e 85 90
e 85 91
e 85 93
e 85 96
e 85 97
e 86 89
e 86 91
e 86 93
e 86 95
e 86 97
e 87 88
e 87 89
e 87 100
e 88 89
e 88 93
e 88 94
e 88 97
e 88 98
e 88 99
e 88 100
e 89 90
e 89 93
e 89 97
e 89 98
e 90 92
e 90 93
e 90 95
e 90 100
e 91 92
e 91 97
e 92 94
e 92 95
e 92 96
e 92 97
e 92 99
e 93 100
e 94 95
e 94 97
e 94 98
e 94 99
e 95 96
e 97 100
e 98 99
e 98 100
n 1 2
n 9 2
n 15 2
n 17 2
n 18 2
n 19 2
n 20 2
n 22 2
n 26 2
n 30 2
n 32 2
n 34 2
n 35 2
n 36 2
n 37 2
n 41 2
n 42 2
n 45 2
n 46 2
n 47 2
n 49 2
n 53 2
n 54 2
n 55 2
n 58 2
n 60 2
n 63 2
n 67 2
n 70 2
n 71 2
n 73 2
n 74 2
n 75 2
n 76 2
n 77 2
n 80 2
n 81 2
n 83 2
n 84 2
n 85 2
n 86 2
n 87 2
n 89 2
n 90 2
n 91 2
n 93 2
n 95 2
n 96 2
n 99 1
n 100 2
